c --- [ banner ] -------------------------------------------------------------
c 
c CaDiCaL Radically Simplified CDCL SAT Solver
c Copyright (c) 2016-2021 A. Biere, M. Fleury, N. Froleyks
c 
c Version 1.5.2 a5f15211db36c3956764e18194dd5bd63bf3b5e6
c g++ (GCC) 9.3.0 -Wall -Wextra -O3 -DNDEBUG
c Fri Oct 21 01:27:37 EDT 2022 Linux gra-login3 3.10.0-1160.66.1.el7.x86_64 x86_64
c 
c --- [ limit ] --------------------------------------------------------------
c 
c setting conflict limit to 200000 conflicts (due to '200000')
c 
c --- [ parsing input ] ------------------------------------------------------
c 
c reading DIMACS file from '33.cubes2913.adj'
c opening file to read '33.cubes2913.adj'
c found 'p cnf 6160 1595476' header
c parsed 1595476 clauses in 19.37 seconds process time
c closing file '33.cubes2913.adj'
c after reading 1457566784 bytes 1390.0 MB
c 
c --- [ options ] ------------------------------------------------------------
c 
c all options are set to their default value
c 
c --- [ solving ] ------------------------------------------------------------
c 
c time measured in process time since initialization
c 
c  seconds    reductions  redundant   irredundant
c          MB     restarts       trail       variables
c            level   conflicts       glue         remaining
c 
c * 19.37 1386  0 0   0    0    0  0% 0 1595422 2335 38%
c { 20.62 1436  0 0   0    0    0  0% 0 1595422 2335 38%
c i 22.14 1472 334 0   2   50   38 23% 4 1595422 2324 38%
c i 22.14 1472 326 0   2   51   38 23% 4 1595422 2323 38%
c i 24.54 1507 134 0  18  138  104 25% 9 1595422 2320 38%
c i 24.77 1510 129 0  20  145  110 25% 11 1595422 2319 38%
c i 24.93 1512 124 0  22  152  115 25% 11 1595422 2318 38%
c i 26.12 1520 117 0  34  198  157 26% 18 1595422 2317 38%
c i 26.78 1523 112 0  41  220  176 26% 18 1595422 2316 38%
c i 27.61 1524 109 0  48  285  218 27% 24 1595422 2315 38%
c - 31.81 1433 105 1  53  300  232 27% 24 237643 2315 38%
c i 32.89 1433 91 1  77  412  324 27% 27 237643 2313 38%
c i 32.93 1433 91 1  79  421  331 27% 28 237643 2312 38%
c i 33.03 1433 89 1  82  432  339 27% 27 237643 2311 38%
c i 33.63 1434 78 1  92  560  449 27% 27 237643 2310 38%
c i 34.05 1434 73 1  99  646  520 27% 26 237643 2309 37%
c i 34.18 1434 67 1  99  749  605 27% 26 237643 2308 37%
c i 34.39 1434 68 1 110  810  651 28% 27 237643 2307 37%
c i 35.56 1404 67 1 130  932  749 27% 27 237643 2306 37%
c } 35.94 1404 67 1 134 1000  803 27% 27 237643 2306 37%
c 
c  seconds    reductions  redundant  irredundant
c          MB     restarts       trail      variables
c            level   conflicts       glue        remaining
c 
c [ 35.94 1404  0 1 134 1000  803  0% 0 237643 2306 37%
c O 35.94 1404 16 1 134 1002  805 21% 1 237643 2306 37%
c - 36.78 1465 22 2 134 1127  812 32% 18 237620 2306 37%
c i 36.91 1465 23 2 134 1219  885 32% 19 237620 2305 37%
c i 36.92 1465 23 2 134 1234  894 32% 19 237620 2304 37%
c i 36.92 1465 23 2 134 1236  895 32% 19 237620 2303 37%
c i 37.12 1465 22 2 134 1794 1267 32% 19 237620 2302 37%
c i 37.12 1465 22 2 134 1797 1269 32% 19 237620 2301 37%
c - 37.60 1464 23 3 135 2365 1302 32% 19 237607 2301 37%
c i 37.96 1464 23 3 135 2557 1426 52% 19 237607 2300 37%
c i 38.12 1464 26 3 135 2853 1637 52% 22 237607 2299 37%
c ] 38.21 1464 27 3 135 3000 1721 52% 22 237607 2299 37%
c { 38.21 1464 67 3 135 3000 1721 73% 27 237607 2299 37%
c F 38.22 1464 67 3 135 3004 1723 73% 27 237607 2299 37%
c i 38.22 1464 67 3 135 3004 1723 73% 27 237607 2298 37%
c i 38.46 1464 65 3 135 3034 1744 72% 26 237607 2297 37%
c i 38.49 1464 66 3 135 3059 1765 72% 27 237607 2296 37%
c i 39.53 1464 62 3 163 3389 2042 66% 26 237607 2295 37%
c i 39.85 1464 62 3 166 3453 2092 65% 27 237607 2294 37%
c i 39.91 1464 61 3 166 3469 2104 65% 26 237607 2293 37%
c 
c  seconds    reductions  redundant   irredundant
c          MB     restarts       trail       variables
c            level   conflicts       glue         remaining
c 
c i 40.45 1464 58 3 182 3732 2308 62% 26 237607 2292 37%
c - 40.83 1360 54 4 182 4017 1795 60% 26 237582 2292 37%
c i 41.25 1360 55 4 196 4111 1878 59% 27 237582 2291 37%
c i 41.50 1360 55 4 204 4175 1906 58% 26 237582 2290 37%
c i 41.53 1360 55 4 206 4179 1909 58% 27 237582 2289 37%
c i 42.88 1360 58 4 236 4389 2075 57% 27 237582 2288 37%
c i 43.14 1360 57 4 239 4596 2242 56% 27 237582 2287 37%
c i 44.78 1359 58 4 297 4894 2509 55% 28 237582 2286 37%
c 2 45.79 1360 58 4 312 5000 3706 55% 28 237541 2281 37%
c p 51.31 1360 58 4 312 5000 7466 55% 28 237541 2226 36%
c d 51.71 1360 58 4 312 5000 7371 55% 28 237381 2225 36%
c # 52.71 1360 51 4 319 6007 8090 54% 27 237381 2225 36%
c - 53.11 1361 51 5 319 6081 2617 54% 26 237381 2225 36%
c } 56.52 1361 55 5 488 7001 3404 52% 29 237381 2225 36%
c [ 56.52 1361 27 5 488 7001 3404 52% 22 237381 2225 36%
c - 57.75 1361 57 6 489 8556 3323 51% 44 237381 2225 36%
c I 59.10 1361 57 6 490 10009 4371 51% 43 237381 2225 36%
c - 62.03 1361 53 7 492 11447 3870 51% 40 237381 2225 36%
c - 65.13 1361 47 8 493 14749 4210 51% 37 237381 2225 36%
c 2 65.38 1361 47 8 493 15000 5628 51% 37 237379 2225 36%
c 
c  seconds    reductions   redundant   irredundant
c          MB     restarts        trail       variables
c            level    conflicts       glue         remaining
c 
c p 67.11 1361 47 8 493 15000 9336 51% 37 237379 2225 36%
c ] 67.21 1361 47 8 493 15003 9339 51% 37 237379 2225 36%
c { 67.21 1361 55 8 493 15003 9339 52% 29 237379 2225 36%
c B 67.37 1361 55 8 495 15010 9344 52% 29 237379 2225 36%
c - 73.60 1361 48 9 647 18463 5173 51% 27 237379 2225 36%
c s 73.95 1361 46 9 647 18833 5285 51% 26 235227 2225 36%
c v 77.82 1362 46 9 647 18833 5285 51% 26 235214 2225 36%
c t 77.92 1362 46 9 647 18833 5271 51% 26 235208 2225 36%
c e 78.85 1364 46 9 647 18833 4862 51% 26 232826 940 15%
c s 78.95 1364 46 9 647 18833 4862 51% 26 229251 940 15%
c W 81.62 1364 41 9 652 21011 6241 70% 24 229251 940 15%
c - 82.29 1364 38 10 660 22593 5720 70% 23 229251 940 15%
c - 90.46 1365 38 11 988 27082 6443 70% 23 229251 940 15%
c F 92.81 1365 37 11 1021 28013 7190 70% 23 229251 940 15%
c 2 96.23 1364 37 11 1111 30000 9369 69% 23 229250 940 15%
c p 99.37 1365 37 11 1111 30000 11725 69% 23 229250 939 15%
c } 102.28 1365 37 11 1224 31011 12536 70% 23 229250 939 15%
c [ 102.28 1365 47 11 1224 31011 12536 125% 37 229250 939 15%
c - 103.12 1367 45 12 1224 31979 7498 119% 36 229247 939 15%
c B 105.65 1367 40 12 1227 36014 9816 104% 32 229247 939 15%
c 
c  seconds     reductions     redundant    irredundant
c           MB      restarts         trail        variables
c             level      conflicts        glue        remaining
c 
c - 106.45 1367 39 13 1227 37285 7374 102% 31 229247 939 15%
c - 108.09 1366 36 14 1231 42998 8056 93% 30 229247 939 15%
c W 109.79 1367 36 14 1231 45015 9492 91% 29 229247 939 15%
c - 111.35 1367 34 15 1232 49120 8751 89% 28 229247 939 15%
c p 113.20 1367 33 15 1232 50000 12667 88% 28 229247 939 15%
c s 113.73 1367 33 15 1232 50555 12983 88% 28 227967 939 15%
c v 117.07 1367 33 15 1232 50555 12983 88% 28 227960 939 15%
c t 117.21 1367 33 15 1232 50555 12972 88% 28 227960 939 15%
c s 118.19 1367 33 15 1232 50555 12972 88% 28 226824 939 15%
c O 120.72 1367 33 15 1233 55018 16395 86% 27 226824 939 15%
c - 121.15 1367 32 16 1234 55649 9739 86% 27 226824 939 15%
c - 123.01 1367 32 17 1238 62563 9309 83% 27 226824 939 15%
c ] 123.13 1367 32 17 1239 63013 9591 83% 27 226824 939 15%
c { 123.14 1367 37 17 1239 63013 9591 70% 23 226824 939 15%
c } 123.27 1367 37 17 1248 63402 9844 70% 23 226824 939 15%
c 1 123.27 1367 37 17 1248 63402 9844 70% 23 226824 939 15%
c 
c --- [ writing output ] -----------------------------------------------------
c 
c writing simplified CNF to DIMACS file 'simp/33.cubes2913.adj.simp1'
c * 123.27 1367 37 17 1248 63402 9844 70% 23 226824 939 15%
c opening file to write 'simp/33.cubes2913.adj.simp1'
c writing 'p cnf 6160 226824' header
c closing file 'simp/33.cubes2913.adj.simp1'
c after writing 111657546 bytes 106.5 MB
c wrote 226824 clauses in 0.77 seconds process time
c 
c --- [ writing extension ] --------------------------------------------------
c 
c writing extension stack to 'simp/33.cubes2913.adj.ext1'
c opening file to write 'simp/33.cubes2913.adj.ext1'
c closing file 'simp/33.cubes2913.adj.ext1'
c after writing 84427 bytes 0.1 MB
c wrote 3747 witnesses in 0.00 seconds process time
c 
c --- [ result ] -------------------------------------------------------------
c 
s SATISFIABLE
c 
c --- [ run-time profiling ] -------------------------------------------------
c 
c process time taken by individual solving procedures
c (percentage relative to process time for solving)
c 
c        79.64   76.65% search
c        53.01   51.02% unstable
c        24.26   23.35% simplify
c        24.21   23.30% stable
c        19.37   18.65% parse
c        11.94   11.49% probe
c         7.39    7.11% vivify
c         3.36    3.23% elim
c         1.25    1.20% lucky
c         1.17    1.13% walk
c         0.50    0.48% subsume
c         0.14    0.13% ternary
c   =================================
c       103.90   83.76% solve
c 
c last line shows process time for solving
c (percentage relative to total process time)
c 
c --- [ statistics ] ---------------------------------------------------------
c 
c chronological:             12472        19.67 %  of conflicts
c conflicts:                 63402       610.22    per second
c decisions:                166219      1599.79    per second
c eliminated:                 1285        20.86 %  of all variables
c fixed:                       786        12.76 %  of all variables
c learned:                   61906        97.64 %  per conflict
c learned_lits:           11830062       100.00 %  learned literals
c minimized:                     0         0.00 %  learned literals
c shrunken:                6582147        55.64 %  learned literals
c minishrunken:            1226634        10.37 %  learned literals
c propagations:            5796716         0.06 M  per second
c reduced:                   35094        55.35 %  per conflict
c rephased:                     10      6340.20    interval
c restarts:                   1248        50.80    interval
c stabilizing:                   3        66.25 %  of conflicts
c substituted:                   6         0.10 %  of all variables
c subsumed:                  24880         0.73 %  of all clauses
c strengthened:              11748         0.34 %  of all clauses
c ternary:                    3615         0.69 %  of resolved
c vivified:                     46         0.00 %  of all clauses
c walked:                        2     31701.00    interval
c weakened:                   2961         3.08    average size
c 
c seconds are measured in process time for solving
c 
c --- [ resources ] ----------------------------------------------------------
c 
c total process time since initialization:       124.04    seconds
c total real time since initialization:          124.28    seconds
c maximum resident set size of process:         1570.35    MB
c 
c --- [ shutting down ] ------------------------------------------------------
c 
c exit 10
WARNING! DIMACS header mismatch: wrong number of variables.
============================[ Problem Statistics ]=============================
|                                                                             |
|  Number of variables:          3491                                         |
|  Number of clauses:          226824                                         |
|  Parse time:                   1.44 s                                       |
|  Simplification time:          0.05 s                                       |
|                                                                             |
============================[ Search Statistics ]====================================================
| Conflicts |          ORIGINAL         |          LEARNT          | Num Sols |      SUBGRAPHS      |
|           |    Vars  Clauses Literals |    Limit  Clauses Lit/Cl |          | Canonical Noncanon. |
=====================================================================================================
|       100 |    3400   226824 23965650 |     2000      100    133 |        0 |        13         0 |
|       292 |    3400   226866 23966264 |     2000      292    111 |        0 |        40        42 |
|      1740 |    3400   228089 23989199 |     2000     1740     38 |        0 |       528      1265 |
|      2410 |    3400   228422 23994627 |     3600     1410     35 |        0 |       621      1598 |
|      2975 |    3400   228481 23995484 |     3600     1975     54 |        0 |       650      1657 |
|      4010 |    3400   228757 24000561 |     3600     3010     61 |        0 |       761      1933 |
|      5473 |    3400   229081 24007181 |     5007     2680     42 |        0 |       889      2257 |
|      8518 |    3400   230418 24029525 |     6305     3223     31 |        0 |      1369      3594 |
|     11971 |    3400   231309 24045759 |     7557     3528     19 |        0 |      1729      4485 |
|     15887 |    3400   231381 24047330 |     7557     7444     67 |        0 |      1762      4557 |
|     21703 |    3400   231431 24048338 |     9997     5100     28 |        0 |      1799      4607 |
|     31436 |    3400   232515 24065986 |    11204     9840     51 |        0 |      1993      5691 |
|     46980 |    3400   235085 24107910 |    13603    13583     56 |        0 |      2837      8261 |
|     72426 |    3400   241070 24210035 |    17207    16833     52 |        0 |      4404     14246 |
|    117820 |    3400   257272 24506379 |    23206    13226     21 |        0 |      7868     30448 |
|    162771 |    3400   258434 24529755 |    26817    21588     58 |        0 |      8322     31610 |
|    229626 |    3400   259605 24556110 |    31621    31247     61 |        0 |      8774     32781 |
|    328621 |    3400   260074 24567932 |    38818    26439     43 |        0 |      8881     33250 |
|    508002 |    3400   291666 25247991 |    48418    33820     41 |        0 |     13552     64842 |
|    731131 |    3400   293112 25286426 |    58014    46545     59 |        0 |     13965     66288 |
|   1092478 |    3400   321934 25878245 |    71224    55902     52 |        0 |     18399     95110 |
|   1632677 |    3400   363345 26734344 |    86837    86514     32 |        0 |     30411    136521 |
|   2449144 |    3400   431630 27986756 |   107220    83564     46 |        0 |     41416    204806 |
|   3625827 |    3400   486039 28899755 |   131235    74262     29 |        0 |     60942    259215 |
=====================================================================================================
Number of solutions   : 0
Canonical subgraphs   : 69936          (7 /sec)
          order  3    : 1              (125000 /sec)
          order  4    : 1              (333333 /sec)
          order  5    : 1              (142857 /sec)
          order  6    : 1              (34483 /sec)
          order  7    : 1              (4950 /sec)
          order  8    : 2              (1000 /sec)
          order  9    : 6              (293 /sec)
          order 10    : 18             (68 /sec)
          order 11    : 74             (22 /sec)
          order 12    : 403            (9 /sec)
          order 13    : 2249           (6 /sec)
          order 14    : 15039          (7 /sec)
          order 15    : 22787          (8 /sec)
          order 16    : 24136          (7 /sec)
          order 17    : 3011           (5 /sec)
          order 18    : 1809           (5 /sec)
          order 19    : 324            (5 /sec)
          order 20    : 66             (5 /sec)
          order 21    : 7              (5 /sec)
          order 22    : 0              (-nan /sec)
Noncanonical subgraphs: 282071         (169 /sec)
          order  3    : 0              (-nan /sec)
          order  4    : 0              (-nan /sec)
          order  5    : 0              (-nan /sec)
          order  6    : 0              (-nan /sec)
          order  7    : 0              (-nan /sec)
          order  8    : 0              (-nan /sec)
          order  9    : 0              (-nan /sec)
          order 10    : 0              (-nan /sec)
          order 11    : 0              (-nan /sec)
          order 12    : 0              (-nan /sec)
          order 13    : 7802           (8065 /sec)
          order 14    : 29412          (2483 /sec)
          order 15    : 186296         (342 /sec)
          order 16    : 10962          (305 /sec)
          order 17    : 46176          (45 /sec)
          order 18    : 1344           (31 /sec)
          order 19    : 70             (26 /sec)
          order 20    : 0              (-nan /sec)
          order 21    : 0              (-nan /sec)
Canonicity checking   : 9967.99 s
Noncanonicity checking: 1668.47 s
Total canonicity time : 11636.5 s
database reductions   : 116
restarts              : 7618
conflicts             : 4272345        (329 /sec)
decisions             : 6027282        (0.00 % random) (465 /sec)
propagations          : 204983472      (15808 /sec)
conflict literals     : 459005616      (53.63 % deleted)
actual reward         : 0.257579
Memory used           : 396.00 MB
CPU time              : 12967.3 s

UNSATISFIABLE
